g9 1 1 0 0 20130109 0 4 0 240	# problem bray
 127 0 1 0 0	# vars, constraints, objectives, ranges, eqns
 0 1	# nonlinear constraints, objectives
 0 0	# network constraints: nonlinear, linear
 0 127 0	# nonlinear vars in constraints, objectives, both
 0 0 0 1	# linear network variables; functions; arith, flags
 0 0 0 0 0	# discrete variables: binary, integer, nonlinear (b,c,o)
 0 127	# nonzeros in Jacobian, gradients
 0 0	# max name lengths: constraints, variables
 0 0 0 0 384	# common exprs: b,c,o,c1,o1
V127 1 1
0 1
n0
V128 2 1
0 -1
1 1
n0
V129 2 1
1 -1
2 1
n0
V130 2 1
2 -1
3 1
n0
V131 2 1
3 -1
4 1
n0
V132 2 1
4 -1
5 1
n0
V133 2 1
5 -1
6 1
n0
V134 2 1
6 -1
7 1
n0
V135 2 1
7 -1
8 1
n0
V136 2 1
8 -1
9 1
n0
V137 2 1
9 -1
10 1
n0
V138 2 1
10 -1
11 1
n0
V139 2 1
11 -1
12 1
n0
V140 2 1
12 -1
13 1
n0
V141 2 1
13 -1
14 1
n0
V142 2 1
14 -1
15 1
n0
V143 2 1
15 -1
16 1
n0
V144 2 1
16 -1
17 1
n0
V145 2 1
17 -1
18 1
n0
V146 2 1
18 -1
19 1
n0
V147 2 1
19 -1
20 1
n0
V148 2 1
20 -1
21 1
n0
V149 2 1
21 -1
22 1
n0
V150 2 1
22 -1
23 1
n0
V151 2 1
23 -1
24 1
n0
V152 2 1
24 -1
25 1
n0
V153 2 1
25 -1
26 1
n0
V154 2 1
26 -1
27 1
n0
V155 2 1
27 -1
28 1
n0
V156 2 1
28 -1
29 1
n0
V157 2 1
29 -1
30 1
n0
V158 2 1
30 -1
31 1
n0
V159 2 1
31 -1
32 1
n0
V160 2 1
32 -1
33 1
n0
V161 2 1
33 -1
34 1
n0
V162 2 1
34 -1
35 1
n0
V163 2 1
35 -1
36 1
n0
V164 2 1
36 -1
37 1
n0
V165 2 1
37 -1
38 1
n0
V166 2 1
38 -1
39 1
n0
V167 2 1
39 -1
40 1
n0
V168 2 1
40 -1
41 1
n0
V169 2 1
41 -1
42 1
n0
V170 2 1
42 -1
43 1
n0
V171 2 1
43 -1
44 1
n0
V172 2 1
44 -1
45 1
n0
V173 2 1
45 -1
46 1
n0
V174 2 1
46 -1
47 1
n0
V175 2 1
47 -1
48 1
n0
V176 2 1
48 -1
49 1
n0
V177 2 1
49 -1
50 1
n0
V178 2 1
50 -1
51 1
n0
V179 2 1
51 -1
52 1
n0
V180 2 1
52 -1
53 1
n0
V181 2 1
53 -1
54 1
n0
V182 2 1
54 -1
55 1
n0
V183 2 1
55 -1
56 1
n0
V184 2 1
56 -1
57 1
n0
V185 2 1
57 -1
58 1
n0
V186 2 1
58 -1
59 1
n0
V187 2 1
59 -1
60 1
n0
V188 2 1
60 -1
61 1
n0
V189 2 1
61 -1
62 1
n0
V190 2 1
62 -1
63 1
n0
V191 2 1
63 -1
64 1
n0
V192 2 1
64 -1
65 1
n0
V193 2 1
65 -1
66 1
n0
V194 2 1
66 -1
67 1
n0
V195 2 1
67 -1
68 1
n0
V196 2 1
68 -1
69 1
n0
V197 2 1
69 -1
70 1
n0
V198 2 1
70 -1
71 1
n0
V199 2 1
71 -1
72 1
n0
V200 2 1
72 -1
73 1
n0
V201 2 1
73 -1
74 1
n0
V202 2 1
74 -1
75 1
n0
V203 2 1
75 -1
76 1
n0
V204 2 1
76 -1
77 1
n0
V205 2 1
77 -1
78 1
n0
V206 2 1
78 -1
79 1
n0
V207 2 1
79 -1
80 1
n0
V208 2 1
80 -1
81 1
n0
V209 2 1
81 -1
82 1
n0
V210 2 1
82 -1
83 1
n0
V211 2 1
83 -1
84 1
n0
V212 2 1
84 -1
85 1
n0
V213 2 1
85 -1
86 1
n0
V214 2 1
86 -1
87 1
n0
V215 2 1
87 -1
88 1
n0
V216 2 1
88 -1
89 1
n0
V217 2 1
89 -1
90 1
n0
V218 2 1
90 -1
91 1
n0
V219 2 1
91 -1
92 1
n0
V220 2 1
92 -1
93 1
n0
V221 2 1
93 -1
94 1
n0
V222 2 1
94 -1
95 1
n0
V223 2 1
95 -1
96 1
n0
V224 2 1
96 -1
97 1
n0
V225 2 1
97 -1
98 1
n0
V226 2 1
98 -1
99 1
n0
V227 2 1
99 -1
100 1
n0
V228 2 1
100 -1
101 1
n0
V229 2 1
101 -1
102 1
n0
V230 2 1
102 -1
103 1
n0
V231 2 1
103 -1
104 1
n0
V232 2 1
104 -1
105 1
n0
V233 2 1
105 -1
106 1
n0
V234 2 1
106 -1
107 1
n0
V235 2 1
107 -1
108 1
n0
V236 2 1
108 -1
109 1
n0
V237 2 1
109 -1
110 1
n0
V238 2 1
110 -1
111 1
n0
V239 2 1
111 -1
112 1
n0
V240 2 1
112 -1
113 1
n0
V241 2 1
113 -1
114 1
n0
V242 2 1
114 -1
115 1
n0
V243 2 1
115 -1
116 1
n0
V244 2 1
116 -1
117 1
n0
V245 2 1
117 -1
118 1
n0
V246 2 1
118 -1
119 1
n0
V247 2 1
119 -1
120 1
n0
V248 2 1
120 -1
121 1
n0
V249 2 1
121 -1
122 1
n0
V250 2 1
122 -1
123 1
n0
V251 2 1
123 -1
124 1
n0
V252 2 1
124 -1
125 1
n0
V253 2 1
125 -1
126 1
n0
V254 1 1
126 -1
n1
V255 0 1
o39
o0
n0.00152587890625
o5
v127
n2
V256 0 1
o39
o0
n0.00152587890625
o5
v128
n2
V257 0 1
o39
o0
n0.00152587890625
o5
v129
n2
V258 0 1
o39
o0
n0.00152587890625
o5
v130
n2
V259 0 1
o39
o0
n0.00152587890625
o5
v131
n2
V260 0 1
o39
o0
n0.00152587890625
o5
v132
n2
V261 0 1
o39
o0
n0.00152587890625
o5
v133
n2
V262 0 1
o39
o0
n0.00152587890625
o5
v134
n2
V263 0 1
o39
o0
n0.00152587890625
o5
v135
n2
V264 0 1
o39
o0
n0.00152587890625
o5
v136
n2
V265 0 1
o39
o0
n0.00152587890625
o5
v137
n2
V266 0 1
o39
o0
n0.00152587890625
o5
v138
n2
V267 0 1
o39
o0
n0.00152587890625
o5
v139
n2
V268 0 1
o39
o0
n0.00152587890625
o5
v140
n2
V269 0 1
o39
o0
n0.00152587890625
o5
v141
n2
V270 0 1
o39
o0
n0.00152587890625
o5
v142
n2
V271 0 1
o39
o0
n0.00152587890625
o5
v143
n2
V272 0 1
o39
o0
n0.00152587890625
o5
v144
n2
V273 0 1
o39
o0
n0.00152587890625
o5
v145
n2
V274 0 1
o39
o0
n0.00152587890625
o5
v146
n2
V275 0 1
o39
o0
n0.00152587890625
o5
v147
n2
V276 0 1
o39
o0
n0.00152587890625
o5
v148
n2
V277 0 1
o39
o0
n0.00152587890625
o5
v149
n2
V278 0 1
o39
o0
n0.00152587890625
o5
v150
n2
V279 0 1
o39
o0
n0.00152587890625
o5
v151
n2
V280 0 1
o39
o0
n0.00152587890625
o5
v152
n2
V281 0 1
o39
o0
n0.00152587890625
o5
v153
n2
V282 0 1
o39
o0
n0.00152587890625
o5
v154
n2
V283 0 1
o39
o0
n0.00152587890625
o5
v155
n2
V284 0 1
o39
o0
n0.00152587890625
o5
v156
n2
V285 0 1
o39
o0
n0.00152587890625
o5
v157
n2
V286 0 1
o39
o0
n0.00152587890625
o5
v158
n2
V287 0 1
o39
o0
n0.00152587890625
o5
v159
n2
V288 0 1
o39
o0
n0.00152587890625
o5
v160
n2
V289 0 1
o39
o0
n0.00152587890625
o5
v161
n2
V290 0 1
o39
o0
n0.00152587890625
o5
v162
n2
V291 0 1
o39
o0
n0.00152587890625
o5
v163
n2
V292 0 1
o39
o0
n0.00152587890625
o5
v164
n2
V293 0 1
o39
o0
n0.00152587890625
o5
v165
n2
V294 0 1
o39
o0
n0.00152587890625
o5
v166
n2
V295 0 1
o39
o0
n0.00152587890625
o5
v167
n2
V296 0 1
o39
o0
n0.00152587890625
o5
v168
n2
V297 0 1
o39
o0
n0.00152587890625
o5
v169
n2
V298 0 1
o39
o0
n0.00152587890625
o5
v170
n2
V299 0 1
o39
o0
n0.00152587890625
o5
v171
n2
V300 0 1
o39
o0
n0.00152587890625
o5
v172
n2
V301 0 1
o39
o0
n0.00152587890625
o5
v173
n2
V302 0 1
o39
o0
n0.00152587890625
o5
v174
n2
V303 0 1
o39
o0
n0.00152587890625
o5
v175
n2
V304 0 1
o39
o0
n0.00152587890625
o5
v176
n2
V305 0 1
o39
o0
n0.00152587890625
o5
v177
n2
V306 0 1
o39
o0
n0.00152587890625
o5
v178
n2
V307 0 1
o39
o0
n0.00152587890625
o5
v179
n2
V308 0 1
o39
o0
n0.00152587890625
o5
v180
n2
V309 0 1
o39
o0
n0.00152587890625
o5
v181
n2
V310 0 1
o39
o0
n0.00152587890625
o5
v182
n2
V311 0 1
o39
o0
n0.00152587890625
o5
v183
n2
V312 0 1
o39
o0
n0.00152587890625
o5
v184
n2
V313 0 1
o39
o0
n0.00152587890625
o5
v185
n2
V314 0 1
o39
o0
n0.00152587890625
o5
v186
n2
V315 0 1
o39
o0
n0.00152587890625
o5
v187
n2
V316 0 1
o39
o0
n0.00152587890625
o5
v188
n2
V317 0 1
o39
o0
n0.00152587890625
o5
v189
n2
V318 0 1
o39
o0
n0.00152587890625
o5
v190
n2
V319 0 1
o39
o0
n0.00152587890625
o5
v191
n2
V320 0 1
o39
o0
n0.00152587890625
o5
v192
n2
V321 0 1
o39
o0
n0.00152587890625
o5
v193
n2
V322 0 1
o39
o0
n0.00152587890625
o5
v194
n2
V323 0 1
o39
o0
n0.00152587890625
o5
v195
n2
V324 0 1
o39
o0
n0.00152587890625
o5
v196
n2
V325 0 1
o39
o0
n0.00152587890625
o5
v197
n2
V326 0 1
o39
o0
n0.00152587890625
o5
v198
n2
V327 0 1
o39
o0
n0.00152587890625
o5
v199
n2
V328 0 1
o39
o0
n0.00152587890625
o5
v200
n2
V329 0 1
o39
o0
n0.00152587890625
o5
v201
n2
V330 0 1
o39
o0
n0.00152587890625
o5
v202
n2
V331 0 1
o39
o0
n0.00152587890625
o5
v203
n2
V332 0 1
o39
o0
n0.00152587890625
o5
v204
n2
V333 0 1
o39
o0
n0.00152587890625
o5
v205
n2
V334 0 1
o39
o0
n0.00152587890625
o5
v206
n2
V335 0 1
o39
o0
n0.00152587890625
o5
v207
n2
V336 0 1
o39
o0
n0.00152587890625
o5
v208
n2
V337 0 1
o39
o0
n0.00152587890625
o5
v209
n2
V338 0 1
o39
o0
n0.00152587890625
o5
v210
n2
V339 0 1
o39
o0
n0.00152587890625
o5
v211
n2
V340 0 1
o39
o0
n0.00152587890625
o5
v212
n2
V341 0 1
o39
o0
n0.00152587890625
o5
v213
n2
V342 0 1
o39
o0
n0.00152587890625
o5
v214
n2
V343 0 1
o39
o0
n0.00152587890625
o5
v215
n2
V344 0 1
o39
o0
n0.00152587890625
o5
v216
n2
V345 0 1
o39
o0
n0.00152587890625
o5
v217
n2
V346 0 1
o39
o0
n0.00152587890625
o5
v218
n2
V347 0 1
o39
o0
n0.00152587890625
o5
v219
n2
V348 0 1
o39
o0
n0.00152587890625
o5
v220
n2
V349 0 1
o39
o0
n0.00152587890625
o5
v221
n2
V350 0 1
o39
o0
n0.00152587890625
o5
v222
n2
V351 0 1
o39
o0
n0.00152587890625
o5
v223
n2
V352 0 1
o39
o0
n0.00152587890625
o5
v224
n2
V353 0 1
o39
o0
n0.00152587890625
o5
v225
n2
V354 0 1
o39
o0
n0.00152587890625
o5
v226
n2
V355 0 1
o39
o0
n0.00152587890625
o5
v227
n2
V356 0 1
o39
o0
n0.00152587890625
o5
v228
n2
V357 0 1
o39
o0
n0.00152587890625
o5
v229
n2
V358 0 1
o39
o0
n0.00152587890625
o5
v230
n2
V359 0 1
o39
o0
n0.00152587890625
o5
v231
n2
V360 0 1
o39
o0
n0.00152587890625
o5
v232
n2
V361 0 1
o39
o0
n0.00152587890625
o5
v233
n2
V362 0 1
o39
o0
n0.00152587890625
o5
v234
n2
V363 0 1
o39
o0
n0.00152587890625
o5
v235
n2
V364 0 1
o39
o0
n0.00152587890625
o5
v236
n2
V365 0 1
o39
o0
n0.00152587890625
o5
v237
n2
V366 0 1
o39
o0
n0.00152587890625
o5
v238
n2
V367 0 1
o39
o0
n0.00152587890625
o5
v239
n2
V368 0 1
o39
o0
n0.00152587890625
o5
v240
n2
V369 0 1
o39
o0
n0.00152587890625
o5
v241
n2
V370 0 1
o39
o0
n0.00152587890625
o5
v242
n2
V371 0 1
o39
o0
n0.00152587890625
o5
v243
n2
V372 0 1
o39
o0
n0.00152587890625
o5
v244
n2
V373 0 1
o39
o0
n0.00152587890625
o5
v245
n2
V374 0 1
o39
o0
n0.00152587890625
o5
v246
n2
V375 0 1
o39
o0
n0.00152587890625
o5
v247
n2
V376 0 1
o39
o0
n0.00152587890625
o5
v248
n2
V377 0 1
o39
o0
n0.00152587890625
o5
v249
n2
V378 0 1
o39
o0
n0.00152587890625
o5
v250
n2
V379 0 1
o39
o0
n0.00152587890625
o5
v251
n2
V380 0 1
o39
o0
n0.00152587890625
o5
v252
n2
V381 0 1
o39
o0
n0.00152587890625
o5
v253
n2
V382 0 1
o39
o0
n0.00152587890625
o5
v254
n2
V383 0 1
o3
v255
o39
v0
V384 0 1
o3
v256
o0
o39
v0
o39
v1
V385 0 1
o3
v257
o0
o39
v1
o39
v2
V386 0 1
o3
v258
o0
o39
v2
o39
v3
V387 0 1
o3
v259
o0
o39
v3
o39
v4
V388 0 1
o3
v260
o0
o39
v4
o39
v5
V389 0 1
o3
v261
o0
o39
v5
o39
v6
V390 0 1
o3
v262
o0
o39
v6
o39
v7
V391 0 1
o3
v263
o0
o39
v7
o39
v8
V392 0 1
o3
v264
o0
o39
v8
o39
v9
V393 0 1
o3
v265
o0
o39
v9
o39
v10
V394 0 1
o3
v266
o0
o39
v10
o39
v11
V395 0 1
o3
v267
o0
o39
v11
o39
v12
V396 0 1
o3
v268
o0
o39
v12
o39
v13
V397 0 1
o3
v269
o0
o39
v13
o39
v14
V398 0 1
o3
v270
o0
o39
v14
o39
v15
V399 0 1
o3
v271
o0
o39
v15
o39
v16
V400 0 1
o3
v272
o0
o39
v16
o39
v17
V401 0 1
o3
v273
o0
o39
v17
o39
v18
V402 0 1
o3
v274
o0
o39
v18
o39
v19
V403 0 1
o3
v275
o0
o39
v19
o39
v20
V404 0 1
o3
v276
o0
o39
v20
o39
v21
V405 0 1
o3
v277
o0
o39
v21
o39
v22
V406 0 1
o3
v278
o0
o39
v22
o39
v23
V407 0 1
o3
v279
o0
o39
v23
o39
v24
V408 0 1
o3
v280
o0
o39
v24
o39
v25
V409 0 1
o3
v281
o0
o39
v25
o39
v26
V410 0 1
o3
v282
o0
o39
v26
o39
v27
V411 0 1
o3
v283
o0
o39
v27
o39
v28
V412 0 1
o3
v284
o0
o39
v28
o39
v29
V413 0 1
o3
v285
o0
o39
v29
o39
v30
V414 0 1
o3
v286
o0
o39
v30
o39
v31
V415 0 1
o3
v287
o0
o39
v31
o39
v32
V416 0 1
o3
v288
o0
o39
v32
o39
v33
V417 0 1
o3
v289
o0
o39
v33
o39
v34
V418 0 1
o3
v290
o0
o39
v34
o39
v35
V419 0 1
o3
v291
o0
o39
v35
o39
v36
V420 0 1
o3
v292
o0
o39
v36
o39
v37
V421 0 1
o3
v293
o0
o39
v37
o39
v38
V422 0 1
o3
v294
o0
o39
v38
o39
v39
V423 0 1
o3
v295
o0
o39
v39
o39
v40
V424 0 1
o3
v296
o0
o39
v40
o39
v41
V425 0 1
o3
v297
o0
o39
v41
o39
v42
V426 0 1
o3
v298
o0
o39
v42
o39
v43
V427 0 1
o3
v299
o0
o39
v43
o39
v44
V428 0 1
o3
v300
o0
o39
v44
o39
v45
V429 0 1
o3
v301
o0
o39
v45
o39
v46
V430 0 1
o3
v302
o0
o39
v46
o39
v47
V431 0 1
o3
v303
o0
o39
v47
o39
v48
V432 0 1
o3
v304
o0
o39
v48
o39
v49
V433 0 1
o3
v305
o0
o39
v49
o39
v50
V434 0 1
o3
v306
o0
o39
v50
o39
v51
V435 0 1
o3
v307
o0
o39
v51
o39
v52
V436 0 1
o3
v308
o0
o39
v52
o39
v53
V437 0 1
o3
v309
o0
o39
v53
o39
v54
V438 0 1
o3
v310
o0
o39
v54
o39
v55
V439 0 1
o3
v311
o0
o39
v55
o39
v56
V440 0 1
o3
v312
o0
o39
v56
o39
v57
V441 0 1
o3
v313
o0
o39
v57
o39
v58
V442 0 1
o3
v314
o0
o39
v58
o39
v59
V443 0 1
o3
v315
o0
o39
v59
o39
v60
V444 0 1
o3
v316
o0
o39
v60
o39
v61
V445 0 1
o3
v317
o0
o39
v61
o39
v62
V446 0 1
o3
v318
o0
o39
v62
o39
v63
V447 0 1
o3
v319
o0
o39
v63
o39
v64
V448 0 1
o3
v320
o0
o39
v64
o39
v65
V449 0 1
o3
v321
o0
o39
v65
o39
v66
V450 0 1
o3
v322
o0
o39
v66
o39
v67
V451 0 1
o3
v323
o0
o39
v67
o39
v68
V452 0 1
o3
v324
o0
o39
v68
o39
v69
V453 0 1
o3
v325
o0
o39
v69
o39
v70
V454 0 1
o3
v326
o0
o39
v70
o39
v71
V455 0 1
o3
v327
o0
o39
v71
o39
v72
V456 0 1
o3
v328
o0
o39
v72
o39
v73
V457 0 1
o3
v329
o0
o39
v73
o39
v74
V458 0 1
o3
v330
o0
o39
v74
o39
v75
V459 0 1
o3
v331
o0
o39
v75
o39
v76
V460 0 1
o3
v332
o0
o39
v76
o39
v77
V461 0 1
o3
v333
o0
o39
v77
o39
v78
V462 0 1
o3
v334
o0
o39
v78
o39
v79
V463 0 1
o3
v335
o0
o39
v79
o39
v80
V464 0 1
o3
v336
o0
o39
v80
o39
v81
V465 0 1
o3
v337
o0
o39
v81
o39
v82
V466 0 1
o3
v338
o0
o39
v82
o39
v83
V467 0 1
o3
v339
o0
o39
v83
o39
v84
V468 0 1
o3
v340
o0
o39
v84
o39
v85
V469 0 1
o3
v341
o0
o39
v85
o39
v86
V470 0 1
o3
v342
o0
o39
v86
o39
v87
V471 0 1
o3
v343
o0
o39
v87
o39
v88
V472 0 1
o3
v344
o0
o39
v88
o39
v89
V473 0 1
o3
v345
o0
o39
v89
o39
v90
V474 0 1
o3
v346
o0
o39
v90
o39
v91
V475 0 1
o3
v347
o0
o39
v91
o39
v92
V476 0 1
o3
v348
o0
o39
v92
o39
v93
V477 0 1
o3
v349
o0
o39
v93
o39
v94
V478 0 1
o3
v350
o0
o39
v94
o39
v95
V479 0 1
o3
v351
o0
o39
v95
o39
v96
V480 0 1
o3
v352
o0
o39
v96
o39
v97
V481 0 1
o3
v353
o0
o39
v97
o39
v98
V482 0 1
o3
v354
o0
o39
v98
o39
v99
V483 0 1
o3
v355
o0
o39
v99
o39
v100
V484 0 1
o3
v356
o0
o39
v100
o39
v101
V485 0 1
o3
v357
o0
o39
v101
o39
v102
V486 0 1
o3
v358
o0
o39
v102
o39
v103
V487 0 1
o3
v359
o0
o39
v103
o39
v104
V488 0 1
o3
v360
o0
o39
v104
o39
v105
V489 0 1
o3
v361
o0
o39
v105
o39
v106
V490 0 1
o3
v362
o0
o39
v106
o39
v107
V491 0 1
o3
v363
o0
o39
v107
o39
v108
V492 0 1
o3
v364
o0
o39
v108
o39
v109
V493 0 1
o3
v365
o0
o39
v109
o39
v110
V494 0 1
o3
v366
o0
o39
v110
o39
v111
V495 0 1
o3
v367
o0
o39
v111
o39
v112
V496 0 1
o3
v368
o0
o39
v112
o39
v113
V497 0 1
o3
v369
o0
o39
v113
o39
v114
V498 0 1
o3
v370
o0
o39
v114
o39
v115
V499 0 1
o3
v371
o0
o39
v115
o39
v116
V500 0 1
o3
v372
o0
o39
v116
o39
v117
V501 0 1
o3
v373
o0
o39
v117
o39
v118
V502 0 1
o3
v374
o0
o39
v118
o39
v119
V503 0 1
o3
v375
o0
o39
v119
o39
v120
V504 0 1
o3
v376
o0
o39
v120
o39
v121
V505 0 1
o3
v377
o0
o39
v121
o39
v122
V506 0 1
o3
v378
o0
o39
v122
o39
v123
V507 0 1
o3
v379
o0
o39
v123
o39
v124
V508 0 1
o3
v380
o0
o39
v124
o39
v125
V509 0 1
o3
v381
o0
o39
v125
o39
v126
V510 0 1
o3
v382
o0
n1
o39
v126
O0 0
o54
128
v510
v509
v508
v507
v506
v505
v504
v503
v502
v501
v500
v499
v498
v497
v496
v495
v494
v493
v492
v491
v490
v489
v488
v487
v486
v485
v484
v483
v482
v481
v480
v479
v478
v477
v476
v475
v474
v473
v472
v471
v470
v469
v468
v467
v466
v465
v464
v463
v462
v461
v460
v459
v458
v457
v456
v455
v454
v453
v452
v451
v450
v449
v448
v447
v446
v445
v444
v443
v442
v441
v440
v439
v438
v437
v436
v435
v434
v433
v432
v431
v430
v429
v428
v427
v426
v425
v424
v423
v422
v421
v420
v419
v418
v417
v416
v415
v414
v413
v412
v411
v410
v409
v408
v407
v406
v405
v404
v403
v402
v401
v400
v399
v398
v397
v396
v395
v394
v393
v392
v391
v390
v389
v388
v387
v386
v385
v384
v383
x127
0 0.0078125
1 0.015625
2 0.0234375
3 0.03125
4 0.0390625
5 0.046875
6 0.0546875
7 0.0625
8 0.0703125
9 0.078125
10 0.0859375
11 0.09375
12 0.1015625
13 0.109375
14 0.1171875
15 0.125
16 0.1328125
17 0.140625
18 0.1484375
19 0.15625
20 0.1640625
21 0.171875
22 0.1796875
23 0.1875
24 0.1953125
25 0.203125
26 0.2109375
27 0.21875
28 0.2265625
29 0.234375
30 0.2421875
31 0.25
32 0.2578125
33 0.265625
34 0.2734375
35 0.28125
36 0.2890625
37 0.296875
38 0.3046875
39 0.3125
40 0.3203125
41 0.328125
42 0.3359375
43 0.34375
44 0.3515625
45 0.359375
46 0.3671875
47 0.375
48 0.3828125
49 0.390625
50 0.3984375
51 0.40625
52 0.4140625
53 0.421875
54 0.4296875
55 0.4375
56 0.4453125
57 0.453125
58 0.4609375
59 0.46875
60 0.4765625
61 0.484375
62 0.4921875
63 0.5
64 0.5078125
65 0.515625
66 0.5234375
67 0.53125
68 0.5390625
69 0.546875
70 0.5546875
71 0.5625
72 0.5703125
73 0.578125
74 0.5859375
75 0.59375
76 0.6015625
77 0.609375
78 0.6171875
79 0.625
80 0.6328125
81 0.640625
82 0.6484375
83 0.65625
84 0.6640625
85 0.671875
86 0.6796875
87 0.6875
88 0.6953125
89 0.703125
90 0.7109375
91 0.71875
92 0.7265625
93 0.734375
94 0.7421875
95 0.75
96 0.7578125
97 0.765625
98 0.7734375
99 0.78125
100 0.7890625
101 0.796875
102 0.8046875
103 0.8125
104 0.8203125
105 0.828125
106 0.8359375
107 0.84375
108 0.8515625
109 0.859375
110 0.8671875
111 0.875
112 0.8828125
113 0.890625
114 0.8984375
115 0.90625
116 0.9140625
117 0.921875
118 0.9296875
119 0.9375
120 0.9453125
121 0.953125
122 0.9609375
123 0.96875
124 0.9765625
125 0.984375
126 0.9921875
b
3
3
3
3
3
3
3
3
3
3
3
3
3
3
3
3
3
3
3
3
3
3
3
3
3
3
3
3
3
3
3
3
3
3
3
3
3
3
3
3
3
3
3
3
3
3
3
3
3
3
3
3
3
3
3
3
3
3
3
3
3
3
3
3
3
3
3
3
3
3
3
3
3
3
3
3
3
3
3
3
3
3
3
3
3
3
3
3
3
3
3
3
3
3
3
3
3
3
3
3
3
3
3
3
3
3
3
3
3
3
3
3
3
3
3
3
3
3
3
3
3
3
3
3
3
3
3
k126
0
0
0
0
0
0
0
0
0
0
0
0
0
0
0
0
0
0
0
0
0
0
0
0
0
0
0
0
0
0
0
0
0
0
0
0
0
0
0
0
0
0
0
0
0
0
0
0
0
0
0
0
0
0
0
0
0
0
0
0
0
0
0
0
0
0
0
0
0
0
0
0
0
0
0
0
0
0
0
0
0
0
0
0
0
0
0
0
0
0
0
0
0
0
0
0
0
0
0
0
0
0
0
0
0
0
0
0
0
0
0
0
0
0
0
0
0
0
0
0
0
0
0
0
0
0
G0 127
0 0
1 0
2 0
3 0
4 0
5 0
6 0
7 0
8 0
9 0
10 0
11 0
12 0
13 0
14 0
15 0
16 0
17 0
18 0
19 0
20 0
21 0
22 0
23 0
24 0
25 0
26 0
27 0
28 0
29 0
30 0
31 0
32 0
33 0
34 0
35 0
36 0
37 0
38 0
39 0
40 0
41 0
42 0
43 0
44 0
45 0
46 0
47 0
48 0
49 0
50 0
51 0
52 0
53 0
54 0
55 0
56 0
57 0
58 0
59 0
60 0
61 0
62 0
63 0
64 0
65 0
66 0
67 0
68 0
69 0
70 0
71 0
72 0
73 0
74 0
75 0
76 0
77 0
78 0
79 0
80 0
81 0
82 0
83 0
84 0
85 0
86 0
87 0
88 0
89 0
90 0
91 0
92 0
93 0
94 0
95 0
96 0
97 0
98 0
99 0
100 0
101 0
102 0
103 0
104 0
105 0
106 0
107 0
108 0
109 0
110 0
111 0
112 0
113 0
114 0
115 0
116 0
117 0
118 0
119 0
120 0
121 0
122 0
123 0
124 0
125 0
126 0
